H  N  O  Si # 
 1.0000000000000000
     8.0003633799999996  -13.8570357600000005    0.0000000000000000
     8.0003633799999996   13.8570357600000005    0.0000000000000000
     0.0000000000000000    0.0000000000000000   27.5000000000000000
 H   N   O   Si 
  59  99   8  72
Selective dynamics
Cartesian
 12.8070008832933695 -4.5427221757873015  3.7899348533072210   T   T   T
  2.7401691442854537  0.3112892592291307  3.8829516705497680   T   T   T
  4.8049781832757912  7.6636360761455871  4.0726169371781928   T   T   T
 12.7969383714958536  0.3388223765833857  4.1619158232480205   T   T   T
  7.0044906972783778 -1.5080847425975066  4.2353005445044802   T   T   T
  2.0334445225967124  1.7738697898291009  4.2803623781088991   T   T   T
  6.1170714860298823  2.0178220282806785  4.5446669961686235   T   T   T
  9.7831977770805469 -7.2977411174063684  4.6495569241085031   T   T   T
  4.4903658166450064  1.5258221905559197  4.7575030177072994   T   T   T
 10.6113819075176483 -8.7007168426774637  4.9797421210488793   T   T   T
  3.9596556097540576 -4.0811092466897225  4.9754136768947843   T   T   T
  8.4146804879206680 -1.1234978055890865  5.0219521998204852   T   T   T
  6.8624747251934259 10.1597933388618280  5.6110234730949795   T   T   T
 12.0877548668604184  4.5946964658987683  5.9432316998636869   T   T   T
  9.7890484769094908 -2.6231602307597881  5.9254174886130837   T   T   T
  6.6848402630624104 -4.3569374051394378  5.9975548440605682   T   T   T
  7.5490368547506312 -7.1068061215512310  6.0194676803886349   T   T   T
  5.2111860061790924 -8.0708890532894806  6.3151542102589548   T   T   T
  9.9468411020786505  1.9086163909449316  6.4856101219010061   T   T   T
  8.1196109300413788 13.0670060026264210  6.5072613835659210   T   T   T
  4.9463203895227359  4.1366136795907069  6.6641595804535374   T   T   T
 11.2838990184574506 -3.6127554968514275  6.7175776200021993   T   T   T
  7.4780531462007422  5.4898094663854700  6.8026840444824437   T   T   T
  9.9918578649654108 -1.2796404135734700  6.8464238524879617   T   T   T
  9.5769603185515315  9.0751195588560272  6.8837949011773567   T   T   T
  8.0613772566625723  1.2813813558858944  6.9738613964362868   T   T   T
  7.0187858480737102 -10.9254499217853898  7.0564036708910249   T   T   T
  6.3562915220321692  7.2249787349311010  7.1914202184254812   T   T   T
  5.7250788653068909  1.7357510026055871 12.7916650231856419   T   T   T
  8.4052609934211997  0.0385937296082330 13.0274943613187304   T   T   T
  8.3366831384724982  5.0359485976301803 13.1059510599003559   T   T   T
 15.0832852848461698 -0.1010357168478393 13.5332330089923261   T   T   T
  7.5094771706439953  3.7496289547546180 13.7843275353309380   T   T   T
 11.4351524236899493  6.6332744208786627 14.4612551707319401   T   T   T
  3.0744051222935784  1.7688262194126299 14.8556777036745249   T   T   T
 12.7243080785875229  3.3617896869434873 15.0462408289350353   T   T   T
 14.6501136406532808 -0.2969735871679480 15.0675669190341921   T   T   T
  6.4563147720546956 -1.9183365401647550 15.0910637571362845   T   T   T
  5.6715753972870715 -0.5206661229060663 15.6198261252486628   T   T   T
 13.5422373694801443 -2.6904164314984991 15.6257590181998616   T   T   T
 11.8635883301560856 -4.4312668058918963 15.6045721854504365   T   T   T
  4.5035253507433124 -2.4018414459310273 15.6474796328306471   T   T   T
  8.4351641926351029 -10.7930887233013699 15.6126453547208985   T   T   T
  5.5840989007290487 -4.8478847653550936 15.8559700212101635   T   T   T
 10.9740472101377708 -2.9992627872444610 15.8768017915802755   T   T   T
 11.8796221717530681  5.9320187025579534 15.9337007183460280   T   T   T
  7.1667102295362586 -5.4250253565607531 16.0190197325432671   T   T   T
  8.8537086742672368  1.8665892593203901 16.1417697183894511   T   T   T
  9.4109916180701472 -1.1714820867907185 16.2706160438656937   T   T   T
  3.1759113136107517 -3.1986616879253629 16.3373359790213115   T   T   T
  8.8073632787985634 -2.7338032403659520 16.3533814342664776   T   T   T
  6.9424765021236068 11.0720583335237848 16.5057593072390816   T   T   T
  6.8079924432038235  0.9746027898856985 16.5758285559555247   T   T   T
 10.4447279291341300  1.7051548828522121 16.5574300505886569   T   T   T
  7.5612785463867773 -11.8141805232895063 16.6999883661761075   T   T   T
  4.9956158465137843  6.4793913562467278 17.0305234373859378   T   T   T
  5.4288396403992714  1.5604680604315375 17.2909732465755432   T   T   T
 10.4046945194611062  9.0372470276809231 17.3769526960992593   T   T   T
  8.8911124523703897  9.5701405824480030 17.7894774519029113   T   T   T
  5.0872234715554230  8.5733000891451372  4.4254643267614071   T   T   T
  2.6248958304506984  1.0136068847345034  4.6086824685030141   T   T   T
 12.0105110567965880  0.7784262912669946  4.6414207033965296   T   T   T
  7.5457927113811047 -1.6528285270015024  5.0858623039260822   T   T   T
  5.4444353882874790  1.5335985220406123  5.1269297216106589   T   T   T
  9.7744102369041190 -8.1590357844582631  5.1919704579965504   T   T   T
  3.8531159274329720 -3.7504389801932301  5.9315314886836878   T   T   T
  6.1434753939052129 10.1693209859450366  6.3357545580927832   T   T   T
  0.6425167095793112  0.0702185319911523  6.5590590293608741   T   T   T
 12.6978944348939073  4.9792888592002793  6.6587768872634436   T   T   T
  7.4880554220839972  2.1056956373614066  6.7870349825575333   T   T   T
 10.0971983834749395 -2.2978366554049385  6.8451737140039741   T   T   T
 11.5264858652951858 -4.6022615074815736  6.8484376267322862   T   T   T
  5.3909338126906690  7.2678435415545195  6.8663399492004045   T   T   T
  6.3821825848294118 -4.7546610645449263  6.8895243770658183   T   T   T
  4.0615200907416273  4.5736254819275430  6.9200562479441547   T   T   T
  8.0545971582018581 -7.0197775188893070  6.8998182249153306   T   T   T
 10.6604514079999682  1.4846582467743996  7.0890725275730810   T   T   T
  2.0697580511038938  1.8817262287707632  7.2770096144039940   T   T   T
  6.1236117613465710 -0.1449153823813941  7.3565761051330787   T   T   T
  7.1119273035975539  4.8182083041238650  7.4669443365325110   T   T   T
 10.7490960640785893 -7.0834421023338123  7.7835550835629865   T   T   T
  9.4113986663840379  8.7092539683336394  7.8237280590451173   T   T   T
  7.0345056382668227 -11.6180276475338040  7.8106610492162210   T   T   T
  4.6137781511364873  2.1314104106520122  7.8198022625601284   T   T   T
 14.5393224835115227 -1.1360880250077574  8.0180345178694008   T   T   T
  7.6412951075256688 -2.0309026190771577  7.9963693098725805   T   T   T
  9.0471903763888175 -4.7238792695065035  8.2141115951613681   T   T   T
  4.2076504183759260 -5.6765778876110993  8.3598649927446171   T   T   T
  9.4493903037605129  3.4063922205115840  8.5885643391880944   T   T   T
 10.7271121624041363  5.8137724739863712  8.7090711329047004   T   T   T
 12.2611547134705905  3.2022166165442849  8.7608273376360533   T   T   T
 13.1760536844584166 -3.2640750989183829  8.8559942107309197   T   T   T
  5.5420421972641876 -8.0527468699979572  9.1336116670545699   T   T   T
  7.8852116404887580  0.7182763750388984  9.2936099679945556   T   T   T
  5.1539939091130638  5.8941695614664251  9.3126201531807045   T   T   T
  0.4899940991764790  0.4286813919820746  9.4170002878207217   T   T   T
  6.9076986338449249  3.4099781105093907  9.4343471214030004   T   T   T
 13.5042207969526746  0.7535830999276513  9.5019324723299405   T   T   T
 10.2741858856127166 -2.6367902853523453  9.5121154598656759   T   T   T
  3.1821769306160896  3.3686213235269835  9.5524288931229311   T   T   T
  7.0358784243262971  8.4714336862663977  9.5423734150052777   T   T   T
  8.2084100508008078 -7.6935410659506465  9.5930634553472363   T   T   T
 11.9035467964317210 -5.5138305786539599  9.6269805885818780   T   T   T
  8.0901095462225143  5.8150006253297200  9.8360220143251951   T   T   T
  3.3659096257909042  0.4380765953492005  9.8868445936307712   T   T   T
 10.7110248524028098  0.9693323865977644  9.9675665071836477   T   T   T
  5.9686459996919936 -1.0716486672654486 10.1343331130732786   T   T   T
  9.8594703727368156  7.9154634011840406 10.1483593062815434   T   T   T
  8.9273501536105009 10.3805927861127554 10.3183768646717500   T   T   T
  6.5903007114230707 -10.3747601658961432 10.2958880299985012   T   T   T
  5.4308838432553781  1.5467966655210537 10.6613570242404059   T   T   T
 12.2378720850734410 -1.3530621227272837 10.7186280475998927   T   T   T
 10.7458161276546349 -7.8042239899779817 10.8467369103466780   T   T   T
 14.9653671602118639 -1.3949949599846676 10.9486345829969132   T   T   T
  5.4393812539000059 -5.8623334276919721 10.9975306535822686   T   T   T
  3.6820275028519704 -3.4487104227499881 11.0244201473437098   T   T   T
  8.6640177294633229 -1.1973389213805059 11.1134949362514934   T   T   T
 10.1071959515572996  4.2013327078058609 11.1810939864445853   T   T   T
  6.7768154383088577 -3.4434853840456365 11.1926962281414610   T   T   T
 13.4836303608901780 -3.8457941837261291 11.3991028892175557   T   T   T
  8.3712901776342150  1.7723183054343385 11.4615758892594108   T   T   T
  1.7606965974066884 -1.2581713239438583 11.5177768228172237   T   T   T
  6.7074210279390716 -8.3399003901241677 11.7708763204698297   T   T   T
  5.1643420309465720  7.4377438396121285 11.8633601363802246   T   T   T
  8.1535360800271679  7.5251726199723619 12.1385571850711269   T   T   T
 12.5053551034847690  3.7673075871786161 12.2902840565941140   T   T   T
  3.8299804255291154  3.8400288905303994 12.3027645622501165   T   T   T
  4.3427650531045368 -0.7864148711797005 12.3202901355282322   T   T   T
 12.5968333010273366  0.8725420832993794 12.3056133288997813   T   T   T
  7.5269545483543077 -5.5215602994710125 12.7754092323069575   T   T   T
 10.2025697286011159 -2.6496878954872183 12.9543280399908145   T   T   T
  7.8842540363851255 11.0310444649246300 13.0143821064574716   T   T   T
  8.1581779463840949  4.0403346260610498 13.0574296386511417   T   T   T
  7.2140410666804602 -10.8501425658438837 13.0948448136387903   T   T   T
 12.9345396047194168 -1.9192399698385658 13.2205109552295834   T   T   T
  5.0782953142876908 -4.1163205421489479 13.2788142535175027   T   T   T
 10.3444177908176105  2.1491313653867632 13.3110440933696346   T   T   T
  5.9554900641113342  1.1790992370169429 13.6284264856250612   T   T   T
  8.8622330915657912 -0.2997771602563106 13.8747912442087262   T   T   T
  6.2599161428386738  8.6678665575577583 13.9760277272704823   T   T   T
  6.4784317218228384  6.0508165158489087 13.9822552127058284   T   T   T
 14.4157445617191780  0.2760183427353166 14.2304404082978841   T   T   T
  9.6741921751742890 -9.7234805900226586 14.2782494658859385   T   T   T
 10.2680817017845154  8.8710643786646806 14.3402295583930250   T   T   T
 12.9104634770813576  2.4363089013280659 14.6397952183499562   T   T   T
  5.7361457557377822 -1.2370296002445702 14.8789020607940987   T   T   T
  3.7629374044020927  2.5172489633076935 14.9321339498414307   T   T   T
 12.2035537517987152  6.2537420603845488 15.0262816567968756   T   T   T
 11.7174728096497276 -3.4612671000061841 15.3344541967091690   T   T   T
  6.3976478505525636 -5.2642573541413471 15.3707591426798942   T   T   T
  6.5674108881857629 11.2630860070374528 15.5754172446011463   T   T   T
  3.9597063651100664 -3.2768889982648859 15.6842313197940069   T   T   T
  7.6714114840787175 -11.4760968229684028 15.7531623112192829   T   T   T
  9.3614012993771265 -2.0814090855877838 15.8066792310156554   T   T   T
  9.6739910344578703  1.2645323588386650 16.0547917597384782   T   T   T
  5.4004930868596732  6.3990748840989538 16.1064501349027474   T   T   T
  5.8230335498853707  1.1910933587750852 16.4283729904629752   T   T   T
  9.5829335174443582  9.5418260056304636 17.0426594468336177   T   T   T
  3.2771436124438194 -0.8685054013442562  6.4030433416613786   T   T   T
  9.5622870557322024 -9.4835153134954524  7.5503042098066278   T   T   T
  4.4690064889266754 -2.8716303470857736  8.0503321405228174   T   T   T
  9.2198866071526115 -10.0196398329442200 11.4301260753743055   T   T   T
  7.6931672949940628 -3.0773123680924734 14.0196934419930468   T   T   T
 11.5033942210115576 -0.0346893897061577 14.6257655577521852   T   T   T
  6.1163121119334436  3.6350400609439157 15.1255873704448618   T   T   T
  8.0328674487364733  7.6424289138211394 15.7982156298609713   T   T   T
 13.0178031802899792 -5.0545407908909947  6.1347247693813678   T   T   T
  2.2819458218292312  0.4732621420610934  6.2140390532155623   T   T   T
 11.9923190546490677  0.8221840251431082  6.2537191663992129   T   T   T
  4.3223131790649285 -2.1409310431719693  6.5348961912125016   T   T   T
  6.6081617408640767 -1.5983780793908833  6.5363431941421677   T   T   T
  5.7967102494018636  1.4672116212435977  6.7972739055277902   T   T   T
  9.5081417017160579 -7.9756269084356095  6.9038749003469873   T   T   T
  4.7242728502188358 -4.3845073998291237  7.3321771701799481   T   T   T
  4.3585639031097143  6.0990288825995034  7.6724227861668250   T   T   T
  2.9743745633534537  3.3995411449486723  7.7472770693470876   T   T   T
  8.5168630398630505 -12.5656173532961830  7.7783997865795484   T   T   T
  6.5365836149599357 10.9319150928384836  7.8487352354024624   T   T   T
  7.5114559512535806 -5.6910057244184857  7.8855753613937516   T   T   T
  7.8246889398870199  3.3129389532845335  7.9219122831395943   T   T   T
 12.9600051704474399 -0.3713370878511372  7.9933420602274987   T   T   T
 10.7730623876264211 -5.4149977293647762  8.1611255319576301   T   T   T
  9.1120360852368965 -2.9616549768000660  8.1766720796101833   T   T   T
 12.2542760083835969  4.9806697758076970  8.3263950963195743   T   T   T
 10.5771295768172777  7.6113599164710877  8.6332859162616771   T   T   T
 10.7500873249583595  2.2869924906151882  8.6694176442923556   T   T   T
  6.9392783655179056 -0.6275917892016124  8.7769054899229317   T   T   T
  8.2518741411867733  9.6156801649947550  8.8778832028418986   T   T   T
 13.8650460539063722  2.5221455984196219  9.0843432447501389   T   T   T
 11.8913409555177658 -2.1109350493465215  9.1731385923513677   T   T   T
  6.6648551092105901  5.1000136170245893  9.1471455714777168   T   T   T
  5.6100226492803857 -6.3079054275008639  9.2915453239363668   T   T   T
  4.2242510540274427  2.0140306863444990  9.4595065841061139   T   T   T
 14.9797999752079267 -0.4103994443380581  9.5591860598823573   T   T   T
  9.5554828188438439  4.8451820319172914  9.6375420915713654   T   T   T
  5.4345065073976029  9.2060797057929786  9.8498015074851359   T   T   T
  6.9137671693058769 -8.6357279153954138 10.0243087357595737   T   T   T
  1.8636216715288196 -0.1117071631601888 10.2812308558013186   T   T   T
  7.0590182166296715  1.9727032293737348 10.2974105713800803   T   T   T
  8.1996904590520749  7.4233114923617904 10.4195634882287305   T   T   T
  4.2400384802657625  6.8361007066679020 10.4667935988196987   T   T   T
  9.0606981631742194  0.4606021693202001 10.5111213485723134   T   T   T
  9.2892791558869714 -6.9038138226410259 10.5282809509378872   F   F   F
 12.1710310870886289  0.3629313135172395 10.7079878477616717   T   T   T
  4.7662461032093617 -0.0582106206348968 10.7918687466029439   T   T   T
  2.8400791751265668  4.2308326720239453 11.0266868615155289   T   T   T
 10.2072184673467259  9.3857108223374190 11.0690158632767943   T   T   T
  9.6345887121454830 -2.6582568208715820 11.2134418850389075   T   T   T
  6.9496650604018022 -1.6866789927405128 11.4214244306200960   T   T   T
  8.1730013957768897 -4.5812183828882267 11.4100793136326999   T   T   T
  5.1809129510594909 -4.2000054256762249 11.5077331102284237   T   T   T
  8.3500665558455918 11.5060689971604582 11.5179616125716944   T   T   T
 13.5267064745953647 -2.1555812735257254 11.5903619621573526   T   T   T
 11.5378076706458756  5.1852795217156125 11.6732180791740134   T   T   T
  6.1806781781264961 -9.9745638557655401 11.9551993882653438   T   T   T
  9.2375021825458834  3.0609249043554394 12.2355022635178354   T   T   T
  3.2169947341775318 -2.1237475372251478 12.2275276448339856   T   T   T
  6.2016119013542061 -6.7805501015459004 12.3935074063984292   T   T   T
 12.9855009400811863 -4.8512713338139477 12.6975393707041189   T   T   T
  6.6423175474005252  7.1821026017215379 12.7588074510862803   T   T   T
  9.9814271541642725  7.8211917974838778 12.8322890331999364   T   T   T
  8.7747554985670408 -10.0945591126870990 12.9833988319635356   T   T   T
 12.0270053716619181  2.3669810111589804 13.1049130707512500   T   T   T
  5.8016376977896780 -0.5418649098506271 13.3088262313617953   T   T   T
 12.7556583612427268 -0.2778584504401674 13.6008337012700071   T   T   T
 11.7050465203461158 -3.1708089986360610 13.6365100808096233   T   T   T
  6.7018759684359139 -4.4266543415704698 13.8516840515707429   T   T   T
  3.3673823816348678  3.9339219423336229 13.9197061207583541   T   T   T
  3.4982516555796868 -3.7244187978483523 14.0745174792069285   T   T   T
  8.9925047237401046 -2.0238794457724762 14.1067512854540862   T   T   T
  7.3864582972727906 10.2558696419270667 14.3716310532254994   T   T   T
 10.0522099096440805  0.8201632499120299 14.4246056778293266   T   T   T
 14.5989148443864725  2.1559928929042478 14.4798349086138050   T   T   T
  5.8979065834086049 -7.4103095896113329 14.7190728366145702   T   T   T
  5.2718342933135087  5.0865371720043919 14.8419497884093428   T   T   T
  5.4176372888176516  2.1113115777227387 15.0027683212409748   T   T   T
  6.5470058437463248  7.2874117241903997 15.2010096167102002   T   T   T
  8.9838418091077106  9.0350507524762662 15.4844170370873631   T   T   T
Cartesian
  0.0000000000000000