 H  O Si                                
   1.00000000000000     
     7.7384709999999997  -13.4034239999999993    0.0000000000000000
     7.7384709999999997   13.4034239999999993    0.0000000000000000
     0.0000000000000000    0.0000000000000000   27.5000000000000000
   H    O    Si
    30   118    54
Selective dynamics
Direct
  0.4720282743131876  0.3522398077945909  0.1654723153091369   T   T   T
  0.6063866964136521  0.9497696545136534  0.1736696722273743   T   T   T
  0.3378620910810357  0.4335172209752625  0.1791232224545858   T   T   T
  0.9057979588697876  0.2782545940438743  0.1908905537658052   T   T   T
  0.6166134775821530  0.2215577521644508  0.1948555358702028   T   T   T
  0.7374357684287591  0.1724687651591900  0.2046389181099567   T   T   T
  0.0962967364761102  0.0670488834593808  0.2144461108778343   T   T   T
  0.8430886590356778  0.6164928241588835  0.2162255338269611   T   T   T
  0.8090314320514775  0.7294342082647441  0.2155046182729841   T   T   T
  0.8854744988129218  0.4970935809659677  0.2253344438659333   T   T   T
  0.9849958603571447  0.8772125312343544  0.2343229575657887   T   T   T
  0.1491842540174054  0.7811126298154767  0.2463912270244402   T   T   T
  0.2049983939031464  0.2691739721015046  0.2873793006073760   T   T   T
  0.6525390763748224  0.6878459529785279  0.2832735024313371   T   T   T
  0.8463584001654983  0.4592210822187588  0.3561663039904887   T   T   T
  0.8726813927747411  0.2643387484770682  0.6040127659096450   T   T   T
  0.0944470791028678  0.3062955683481943  0.6187415016238900   T   T   T
  0.9475711643724388  0.8701639977511788  0.6107251221913524   T   T   T
  0.6233847289401178  0.9024789533716876  0.6215910333710579   T   T   T
  0.1567031983120952  0.6604660788579715  0.6290226995928575   T   T   T
  0.3476314585277735  0.4514366678232388  0.6245108349207018   T   T   T
  0.5227179897460348  0.4819441887834991  0.6281328036335728   T   T   T
  0.7274929450848781  0.5332160529243934  0.6313999028666182   T   T   T
  0.9760852248637546  0.4246293696329563  0.6327189312304281   T   T   T
  0.4841144102310738  0.7553531922165860  0.6392759661723336   T   T   T
  0.7230271692215995  0.1989134512706159  0.6437603149102050   T   T   T
  0.2919942549395244  0.1218045258049014  0.6463228469996157   T   T   T
  0.2210938179442950  0.7999687047197338  0.6536269186516319   T   T   T
  0.9215300873104241  0.7066182492098280  0.6776490504712940   T   T   T
  0.2557684238498805  0.3263852896228965  0.6861223434008784   T   T   T
  0.4389774055012571  0.3778725417457142  0.1861161218697253   T   T   T
  0.3056345034382550  0.4588463819203004  0.2007777557567986   T   T   T
  0.5956425872908312  0.2712721785484993  0.2006066009784208   T   T   T
  0.6640196691230891  0.1310521409968725  0.1998456151750841   T   T   T
  0.7478109723377666  0.6638846583710852  0.2114727094738677   T   T   T
  0.8634881463766638  0.2576009927864576  0.2195854944859729   T   T   T
  0.8677810862809159  0.4278875157808438  0.2172210187399288   T   T   T
  0.0962933251173853  0.7728945845795625  0.2243806612181908   T   T   T
  0.9056767850230009  0.6213159905018067  0.2277831849740437   T   T   T
  0.9406335145547762  0.8046524417118649  0.2328156658464414   T   T   T
  0.4961106578317647  0.9765036025552014  0.2339729720647692   T   T   T
  0.0748143271111906  0.0210630377626503  0.2416758779152097   T   T   T
  0.1950720647147066  0.3147680340038452  0.2666657006791563   T   T   T
  0.5798490546821367  0.5149407467577618  0.2441224555006862   T   T   T
  0.6723784886764577  0.9975654995160455  0.2605175244773322   T   T   T
  0.5005265901646729  0.3198349119064392  0.2650269987158792   T   T   T
  0.3921952145302766  0.4097806611236103  0.2734718374655865   T   T   T
  0.6958794896473615  0.4088230709152044  0.2708338899850428   T   T   T
  0.3474333599020808  0.8232461634808941  0.2823483479482109   T   T   T
  0.9785876213249877  0.4073742705471382  0.2853191336310482   T   T   T
  0.2945232230356568  0.5093004980311516  0.2899046088219028   T   T   T
  0.7889764274543819  0.2927111578124255  0.2954412236575357   T   T   T
  0.5929089461178741  0.2157676715528308  0.2929835016174887   T   T   T
  0.0195121268855616  0.1227382533869200  0.3012913836828006   T   T   T
  0.7424757504265904  0.5916440967516780  0.3004308539329876   T   T   T
  0.9949474649152847  0.7297754901671019  0.3084177716138989   T   T   T
  0.4170252160850983  0.0149581991116555  0.3118021778647087   T   T   T
  0.1971029103241776  0.1430714762688335  0.3144022769153025   T   T   T
  0.2401142166937507  0.6370919846243566  0.3190898434062265   T   T   T
  0.1786257953309054  0.7710808182552177  0.3209451242541183   T   T   T
  0.5220555599785495  0.9275080063890215  0.3236360155005468   T   T   T
  0.6754249936211379  0.1116116841703811  0.3330984668242069   T   T   T
  0.9703715179407179  0.2544391398979612  0.3323202102138245   T   T   T
  0.0338011671342629  0.9647616503944604  0.3311093492979129   T   T   T
  0.8403849993273312  0.5097644995513593  0.3378759335887874   T   T   T
  0.1279293510111651  0.4424669934281052  0.3424113257791044   T   T   T
  0.3360254293493697  0.1090281143839204  0.3481224733916384   T   T   T
  0.6866913488042482  0.9433657181228523  0.3520271024155535   T   T   T
  0.6429309696465033  0.4333152922826316  0.3575070801215240   T   T   T
  0.1062842184754799  0.8637285507151806  0.3762238814755589   T   T   T
  0.6879986543173386  0.2683276231004990  0.3774751178832026   T   T   T
  0.3279355167276975  0.7924752863000853  0.3787146325756693   T   T   T
  0.9163091244182887  0.0809109185901264  0.3813967391241554   T   T   T
  0.3007524558674213  0.5519004305845494  0.3842164368742545   T   T   T
  0.9535564192117680  0.3902161228130471  0.3832493876868510   T   T   T
  0.1038918161110664  0.2300675747239896  0.3819499077710740   T   T   T
  0.6317377477171939  0.7560620716123315  0.3843229506169346   T   T   T
  0.3191022678126061  0.2495267300899749  0.3883201185413646   T   T   T
  0.4999376216014178  0.1350146736911363  0.3934975992943734   T   T   T
  0.0551216455811819  0.6746810601935173  0.3914447322920523   T   T   T
  0.6168219122346151  0.5760672016699498  0.3956350148568950   T   T   T
  0.3337385359143686  0.9649407078723043  0.3992290946111161   T   T   T
  0.1680952056861414  0.0539923051974738  0.3998340317156569   T   T   T
  0.3778072928102981  0.4370917185017272  0.4065326148223916   T   T   T
  0.9778812347002969  0.9070686052807496  0.4226540946918728   T   T   T
  0.5075287297973025  0.3825106831191321  0.4244859960462696   T   T   T
  0.9254382895418634  0.7190567101885362  0.4234735916116306   T   T   T
  0.7809003516194533  0.7500161896772646  0.4211160051321250   T   T   T
  0.7683360327292882  0.9230963119943191  0.4289296755197642   T   T   T
  0.5716203441136731  0.8597249340644764  0.4326917057960000   T   T   T
  0.7876249141984422  0.0999550953686145  0.4343773257423847   T   T   T
  0.0046793494442313  0.2835846618086936  0.4407105457923060   T   T   T
  0.2005985564925484  0.3895165609158449  0.4406021253458149   T   T   T
  0.7067081084575448  0.4995274119764416  0.4464090434629019   T   T   T
  0.6466864047705981  0.1396368933572357  0.4486098888198722   T   T   T
  0.4365128870447981  0.9075188304493331  0.4528761494850121   T   T   T
  0.9072863584023211  0.5511350835898913  0.4504363951694100   T   T   T
  0.2383694260413046  0.8096962624659209  0.4558408289489203   T   T   T
  0.8410355782666684  0.2857869874511129  0.4589826582939690   T   T   T
  0.5993976542252610  0.2757181196044483  0.4626724596983364   T   T   T
  0.0214230019373637  0.4537214927368901  0.4726510178348340   T   T   T
  0.6099298759073767  0.6740888650391329  0.4722360176296821   T   T   T
  0.3588194895793115  0.5475382790605386  0.4746267685452316   T   T   T
  0.9158548770778693  0.0608082591014029  0.4792169600881966   T   T   T
  0.3377269306782484  0.3040748610779269  0.4778075992725931   T   T   T
  0.1065169115344890  0.2041171176099243  0.4774875364082530   T   T   T
  0.0577009680783829  0.7271701889925289  0.4867951688143168   T   T   T
  0.3992207361796370  0.7315939213587574  0.4819665859516090   T   T   T
  0.1824021485112732  0.9299450027812292  0.4993541892378837   T   T   T
  0.2103666977931676  0.5806509055117802  0.4973440949621346   T   T   T
  0.7752907081839910  0.4082526866832225  0.5023323450699978   T   T   T
  0.8864739967299849  0.7963773413233860  0.5022286837404695   T   T   T
  0.2994826204716108  0.1316680781337842  0.5182316202957618   T   T   T
  0.8235054170585990  0.6016770509350560  0.5188614272449570   T   T   T
  0.5476637522796295  0.5057301822101840  0.5235982303080534   T   T   T
  0.5467605101020663  0.8933994011540389  0.5236154239735894   T   T   T
  0.7492052917185954  0.1395605272118172  0.5242947000807010   T   T   T
  0.6190361184582364  0.3856789647398629  0.5435031753178812   T   T   T
  0.1042133332768771  0.4056727461328447  0.5445335591748703   T   T   T
  0.9876104540405405  0.2025278061492059  0.5476879992524932   T   T   T
  0.0344250143614739  0.0575844608530130  0.5436501035642257   T   T   T
  0.6540374348631220  0.2374466980385530  0.5492282273290033   T   T   T
  0.7134544179052131  0.6778443241394942  0.5492124336116139   T   T   T
  0.2097512296944222  0.8015094139617556  0.5511863142331228   T   T   T
  0.0622902325400971  0.5544234957903692  0.5550333103236739   T   T   T
  0.4330759665515969  0.3142453458398311  0.5570918815767568   T   T   T
  0.5379359361901566  0.6602207550467986  0.5613250859477993   T   T   T
  0.3498637860647812  0.6162369973773000  0.5621942274658942   T   T   T
  0.2441412173792366  0.2463848862232940  0.5656664170491001   T   T   T
  0.3197998880423388  0.9963958056625740  0.5689798089043711   T   T   T
  0.5755590108255877  0.0499975207289041  0.5755145016985111   T   T   T
  0.1584614466376595  0.0083846866121553  0.5813719189788710   T   T   T
  0.3998129468852054  0.8807457305787223  0.5796278190482439   T   T   T
  0.8863227952342322  0.7325406547325463  0.5914871101113934   T   T   T
  0.9404754914828001  0.3209289153293575  0.5975324151729492   T   T   T
  0.9890674266670455  0.6417012107213713  0.6113461230138171   T   T   T
  0.5694338629024552  0.4614582442073308  0.6156998355852085   T   T   T
  0.4123817337808475  0.5040375629753273  0.6122126360053766   T   T   T
  0.7491478343963087  0.1844248619834938  0.6147154419624375   T   T   T
  0.5540476517800746  0.8860190327862590  0.6207330372840860   T   T   T
  0.9771342532978808  0.9384903890691304  0.6233420931639199   T   T   T
  0.1150183765707842  0.1282999653791182  0.6311235132449118   T   T   T
  0.7958295309295204  0.5454418666132302  0.6312539258022318   T   T   T
  0.2621865918184262  0.8687805917479430  0.6429944588840175   T   T   T
  0.4576462715257992  0.6833770254260501  0.6439807569861467   T   T   T
  0.3095682333039335  0.1914919365148897  0.6472835832039470   T   T   T
  0.0114457894373770  0.4916050033471215  0.6480056105085107   T   T   T
  0.2523838619800529  0.3254840392653933  0.6508518884064394   T   T   T
  0.6106754751656259  0.0124241984318535  0.2149648427871117   T   T   T
  0.4797936167733744  0.4059579048186202  0.2426543865611819   T   T   T
  0.9864726425718900  0.7327138430373468  0.2487688296031649   T   T   T
  0.2966304752640290  0.4223005592055846  0.2571731734470137   T   T   T
  0.8744766826731929  0.3510691470963241  0.2541305375625129   T   T   T
  0.5959801936007709  0.3027336690726657  0.2570439522063050   T   T   T
  0.6790010040614808  0.6176403620606492  0.2607159721617593   T   T   T
  0.4434202479777002  0.9356363269144049  0.2869080330071196   T   T   T
  0.0816950701314349  0.0638915923031294  0.2968914283820742   T   T   T
  0.6425738204328983  0.9971163690726421  0.3177806108050168   T   T   T
  0.7322548097846927  0.4857770707645371  0.3168556443479884   T   T   T
  0.6861187775472621  0.2207836293435299  0.3236156104521866   T   T   T
  0.2735952493506406  0.7533329324533858  0.3260939885135065   T   T   T
  0.2403674411548843  0.5349297219791139  0.3331267922817572   T   T   T
  0.0084389116941933  0.3739947597966824  0.3355311054691948   T   T   T
  0.0804720568844620  0.7588732035769589  0.3491796230033055   T   T   T
  0.0008230977748078  0.1728811249885075  0.3493332380785470   T   T   T
  0.4004463301265980  0.0576269051892558  0.3629400312345940   T   T   T
  0.2550669698080280  0.1400393508555498  0.3643305689551554   T   T   T
  0.0711060684334154  0.9461151898899078  0.3839586236787578   T   T   T
  0.6623729097449076  0.8703572147108002  0.3990870469859366   T   T   T
  0.6175008213286329  0.4724897872136865  0.4070492232475888   T   T   T
  0.6599554976839379  0.6870141748757838  0.4183839935872350   T   T   T
  0.6060639179370019  0.2049957390558189  0.4201799844520916   T   T   T
  0.3347730295054552  0.8687697611931848  0.4214523033161744   T   T   T
  0.3095465639663160  0.4821964146650015  0.4258295194416479   T   T   T
  0.3879246735508559  0.3423516818201122  0.4243406216191872   F   F   F
  0.8499797477861237  0.0419081538203499  0.4307940533651813   T   T   T
  0.1073663533940209  0.2786672527752990  0.4354414263450353   T   T   T
  0.9551218284175678  0.3556707437883095  0.4395284118924405   T   T   T
  0.9894977066072153  0.6670561278553501  0.4393023588063268   T   T   T
  0.8923565578088849  0.7968617068515366  0.4426813860113052   T   T   T
  0.7583734162872793  0.1678723297563733  0.4662934340159063   T   T   T
  0.4889311415027793  0.8452109903377393  0.4725398839219149   T   T   T
  0.8020586961933773  0.5155001608121172  0.4789908855343208   T   T   T
  0.1705214368978735  0.8173493042715656  0.4983375028709514   T   T   T
  0.3292978025121793  0.6205194778574581  0.5044263595023492   T   T   T
  0.0116799553704704  0.1322349935832193  0.5126421017000071   T   T   T
  0.6597468714840520  0.3240593770804833  0.5139070156860934   T   T   T
  0.0998912002515077  0.4985011769373324  0.5180716176839840   T   T   T
  0.6012159401552459  0.6278440697741267  0.5263738648641515   T   T   T
  0.3281844390397076  0.2479195578155129  0.5288604857677056   T   T   T
  0.8268198073396046  0.7017996369661786  0.5394844137211802   T   T   T
  0.2393179755779636  0.0185363669251053  0.5405430625210681   T   T   T
  0.5392370298323129  0.4175393621941482  0.5601429610153997   T   T   T
  0.6796961786334936  0.1520664800180150  0.5649204463033207   T   T   T
  0.5189722542891869  0.9286288797944894  0.5741343550623956   T   T   T
  0.0333854329430806  0.3073074970681466  0.5781417661111272   T   T   T
  0.2978103690760177  0.8855996454629155  0.5863689099155089   T   T   T
  0.0677917580936163  0.0303152774814392  0.5948054252793380   T   T   T
  0.4378783425878386  0.6162405407396346  0.5955319143606430   T   T   T
  0.0557817496297584  0.5866448764369759  0.6112716913567638   T   T   T
  0.2298377915348772  0.2206279736214590  0.6241894015793292   T   T   T
  0.8967557640076483  0.6547748147795110  0.6302562978303246   T   T   T
